certificates/rado_a15_c146_N45.cnf
c Rad2 upper bound instance: x1 + 15*x2 - x3 = 146, interval [1,45]
p cnf 45 270
1 5 10 0
-1 -5 -10 0
1 11 20 0
-1 -11 -20 0
1 12 35 0
-1 -12 -35 0
2 6 10 0
-2 -6 -10 0
2 11 21 0
-2 -11 -21 0
2 12 36 0
-2 -12 -36 0
3 7 10 0
-3 -7 -10 0
3 11 22 0
-3 -11 -22 0
3 12 37 0
-3 -12 -37 0
4 8 10 0
-4 -8 -10 0
4 11 23 0
-4 -11 -23 0
4 12 38 0
-4 -12 -38 0
5 9 10 0
-5 -9 -10 0
5 11 24 0
-5 -11 -24 0
5 12 39 0
-5 -12 -39 0
6 10 0
-6 -10 0
6 11 25 0
-6 -11 -25 0
6 12 40 0
-6 -12 -40 0
7 10 11 0
-7 -10 -11 0
7 11 26 0
-7 -11 -26 0
7 12 41 0
-7 -12 -41 0
8 10 12 0
-8 -10 -12 0
8 11 27 0
-8 -11 -27 0
8 12 42 0
-8 -12 -42 0
9 10 13 0
-9 -10 -13 0
9 11 28 0
-9 -11 -28 0
9 12 43 0
-9 -12 -43 0
10 14 0
-10 -14 0
10 11 29 0
-10 -11 -29 0
10 12 44 0
-10 -12 -44 0
10 11 15 0
-10 -11 -15 0
11 30 0
-11 -30 0
11 12 45 0
-11 -12 -45 0
1 9 12 0
-1 -9 -12 0
10 12 16 0
-10 -12 -16 0
11 12 31 0
-11 -12 -31 0
2 9 13 0
-2 -9 -13 0
10 13 17 0
-10 -13 -17 0
11 13 32 0
-11 -13 -32 0
3 9 14 0
-3 -9 -14 0
10 14 18 0
-10 -14 -18 0
11 14 33 0
-11 -14 -33 0
4 9 15 0
-4 -9 -15 0
10 15 19 0
-10 -15 -19 0
11 15 34 0
-11 -15 -34 0
5 9 16 0
-5 -9 -16 0
10 16 20 0
-10 -16 -20 0
11 16 35 0
-11 -16 -35 0
6 9 17 0
-6 -9 -17 0
10 17 21 0
-10 -17 -21 0
11 17 36 0
-11 -17 -36 0
7 9 18 0
-7 -9 -18 0
10 18 22 0
-10 -18 -22 0
11 18 37 0
-11 -18 -37 0
8 9 19 0
-8 -9 -19 0
10 19 23 0
-10 -19 -23 0
11 19 38 0
-11 -19 -38 0
9 20 0
-9 -20 0
10 20 24 0
-10 -20 -24 0
11 20 39 0
-11 -20 -39 0
9 10 21 0
-9 -10 -21 0
10 21 25 0
-10 -21 -25 0
11 21 40 0
-11 -21 -40 0
9 11 22 0
-9 -11 -22 0
10 22 26 0
-10 -22 -26 0
11 22 41 0
-11 -22 -41 0
9 12 23 0
-9 -12 -23 0
10 23 27 0
-10 -23 -27 0
11 23 42 0
-11 -23 -42 0
9 13 24 0
-9 -13 -24 0
10 24 28 0
-10 -24 -28 0
11 24 43 0
-11 -24 -43 0
9 14 25 0
-9 -14 -25 0
10 25 29 0
-10 -25 -29 0
11 25 44 0
-11 -25 -44 0
9 15 26 0
-9 -15 -26 0
10 26 30 0
-10 -26 -30 0
11 26 45 0
-11 -26 -45 0
1 8 27 0
-1 -8 -27 0
9 16 27 0
-9 -16 -27 0
10 27 31 0
-10 -27 -31 0
2 8 28 0
-2 -8 -28 0
9 17 28 0
-9 -17 -28 0
10 28 32 0
-10 -28 -32 0
3 8 29 0
-3 -8 -29 0
9 18 29 0
-9 -18 -29 0
10 29 33 0
-10 -29 -33 0
4 8 30 0
-4 -8 -30 0
9 19 30 0
-9 -19 -30 0
10 30 34 0
-10 -30 -34 0
5 8 31 0
-5 -8 -31 0
9 20 31 0
-9 -20 -31 0
10 31 35 0
-10 -31 -35 0
6 8 32 0
-6 -8 -32 0
9 21 32 0
-9 -21 -32 0
10 32 36 0
-10 -32 -36 0
7 8 33 0
-7 -8 -33 0
9 22 33 0
-9 -22 -33 0
10 33 37 0
-10 -33 -37 0
8 34 0
-8 -34 0
9 23 34 0
-9 -23 -34 0
10 34 38 0
-10 -34 -38 0
8 9 35 0
-8 -9 -35 0
9 24 35 0
-9 -24 -35 0
10 35 39 0
-10 -35 -39 0
8 10 36 0
-8 -10 -36 0
9 25 36 0
-9 -25 -36 0
10 36 40 0
-10 -36 -40 0
8 11 37 0
-8 -11 -37 0
9 26 37 0
-9 -26 -37 0
10 37 41 0
-10 -37 -41 0
8 12 38 0
-8 -12 -38 0
9 27 38 0
-9 -27 -38 0
10 38 42 0
-10 -38 -42 0
8 13 39 0
-8 -13 -39 0
9 28 39 0
-9 -28 -39 0
10 39 43 0
-10 -39 -43 0
8 14 40 0
-8 -14 -40 0
9 29 40 0
-9 -29 -40 0
10 40 44 0
-10 -40 -44 0
8 15 41 0
-8 -15 -41 0
9 30 41 0
-9 -30 -41 0
10 41 45 0
-10 -41 -45 0
1 7 42 0
-1 -7 -42 0
8 16 42 0
-8 -16 -42 0
9 31 42 0
-9 -31 -42 0
2 7 43 0
-2 -7 -43 0
8 17 43 0
-8 -17 -43 0
9 32 43 0
-9 -32 -43 0
3 7 44 0
-3 -7 -44 0
8 18 44 0
-8 -18 -44 0
9 33 44 0
-9 -33 -44 0
4 7 45 0
-4 -7 -45 0
8 19 45 0
-8 -19 -45 0
9 34 45 0
-9 -34 -45 0
