certificates/rado_a15_c146_N45.drat
-40 10 0
12 10 -42 0
-41 -42 -45 0
-12 -42 -44 -45 0
-42 -44 -45 0
d -12 -42 -44 -45 0
-10 12 -44 0
12 -43 42 -44 0
-43 -44 42 0
d 12 -43 42 -44 0
-12 -44 -45 0
-44 -45 0
d -42 -44 -45 0
12 -45 0
-10 -45 0
10 44 0
d 40 10 44 0
-45 0
-12 10 0
10 0
-6 0
-14 0
8 12 0
d 8 42 12 0
12 0
-44 0
-16 0
-8 0
34 0
42 0
18 0
19 0
32 0
40 0
-38 0
-30 0
-22 0
-23 0
-15 0
-36 0
-28 0
11 0
4 0
41 0
2 0
-29 0
-21 0
-7 0
-31 0
-37 0
-13 0
3 0
33 0
5 0
39 0
0
